WARNING: for repeatability, setting FPU to use double precision
============================[ Problem Statistics ]=============================
|                                                                             |
|  Number of variables:       2311916                                         |
|  Number of clauses:        12137807                                         |
|  Parse time:                   2.92 s                                       |
|                                                                             |
c ============================[ Search Statistics ]==============================
c | Conflicts |          ORIGINAL         |          LEARNT          | Progress |
c |           |    Vars  Clauses Literals |    Limit  Clauses Lit/Cl |          |
c ===============================================================================
We had 57436 decisions of which only 0 were on extended
We had 77885225 decisions of which only 0 were on extended
c Switched to VSIDS.
c Switched to LRB.
c Switched to VSIDS.
c Switched to LRB.
We had 168874418 decisions of which only 0 were on extended
c Switched to VSIDS.
c Switched to LRB.
We had 221303523 decisions of which only 5.51279e-05 were on extended
c Switched to VSIDS.
c Switched to LRB.
c Switched to VSIDS.
We had 336029236 decisions of which only 6.10066e-05 were on extended
c Switched to LRB.
c Switched to VSIDS.
c Switched to LRB.
We had 531678333 decisions of which only 5.37919e-05 were on extended
We had 536710286 decisions of which only 5.32876e-05 were on extended
We had 537960405 decisions of which only 5.31638e-05 were on extended
We had 538875774 decisions of which only 5.30735e-05 were on extended
c Switched to VSIDS.
We had 539651953 decisions of which only 5.29971e-05 were on extended
We had 545986459 decisions of which only 5.23823e-05 were on extended
We had 547695846 decisions of which only 5.22188e-05 were on extended
We had 547793009 decisions of which only 5.22095e-05 were on extended
We had 548038359 decisions of which only 5.21861e-05 were on extended
We had 548095677 decisions of which only 5.21807e-05 were on extended
We had 548733556 decisions of which only 5.212e-05 were on extended
We had 552710195 decisions of which only 5.1745e-05 were on extended
We had 552923682 decisions of which only 5.1725e-05 were on extended
We had 557154813 decisions of which only 5.13322e-05 were on extended
Window full
Continue
We had 557573903 decisions of which only 5.12936e-05 were on extended
c Switched to LRB.
We had 564522374 decisions of which only 6.60736e-05 were on extended
We had 568639393 decisions of which only 6.55952e-05 were on extended
We had 568809330 decisions of which only 6.55756e-05 were on extended
We had 568838164 decisions of which only 6.55723e-05 were on extended
We had 569011762 decisions of which only 6.55522e-05 were on extended
We had 579250063 decisions of which only 6.43936e-05 were on extended
We had 582827650 decisions of which only 6.39983e-05 were on extended
We had 582971686 decisions of which only 6.39825e-05 were on extended
We had 584417323 decisions of which only 6.38243e-05 were on extended
Window full
Deactivate
We had 584495117 decisions of which only 6.38158e-05 were on extended
We had 584913364 decisions of which only 6.37701e-05 were on extended
We had 584974882 decisions of which only 6.37634e-05 were on extended
We had 585038251 decisions of which only 6.37565e-05 were on extended
We had 589963588 decisions of which only 7.00043e-05 were on extended
We had 590003795 decisions of which only 6.99995e-05 were on extended
c Switched to VSIDS.
We had 590394812 decisions of which only 6.99532e-05 were on extended
We had 590496119 decisions of which only 6.99412e-05 were on extended
We had 590852824 decisions of which only 6.9899e-05 were on extended
We had 591025159 decisions of which only 6.98786e-05 were on extended
We had 612269158 decisions of which only 6.7454e-05 were on extended
We had 612563627 decisions of which only 6.74216e-05 were on extended
We had 612838810 decisions of which only 6.73913e-05 were on extended
We had 613366879 decisions of which only 6.73333e-05 were on extended
c Switched to LRB.
We had 625801717 decisions of which only 7.33459e-05 were on extended
We had 627473922 decisions of which only 7.5541e-05 were on extended
We had 630476385 decisions of which only 7.51812e-05 were on extended
We had 638603814 decisions of which only 7.42244e-05 were on extended
We had 641029820 decisions of which only 7.39435e-05 were on extended
We had 641223023 decisions of which only 7.39212e-05 were on extended
We had 641248618 decisions of which only 7.39183e-05 were on extended
We had 643299868 decisions of which only 7.36826e-05 were on extended
We had 646709657 decisions of which only 7.32941e-05 were on extended
We had 649487055 decisions of which only 7.29807e-05 were on extended
We had 650005310 decisions of which only 7.29225e-05 were on extended
We had 650077760 decisions of which only 7.29144e-05 were on extended
We had 650259101 decisions of which only 7.2894e-05 were on extended
We had 651547967 decisions of which only 7.27498e-05 were on extended
We had 651780348 decisions of which only 7.27239e-05 were on extended
c Switched to VSIDS.
We had 662002972 decisions of which only 7.16009e-05 were on extended
We had 662044166 decisions of which only 7.15964e-05 were on extended
We had 662126471 decisions of which only 7.15875e-05 were on extended
We had 667137519 decisions of which only 7.10498e-05 were on extended
We had 668476828 decisions of which only 7.09075e-05 were on extended
We had 668736704 decisions of which only 7.08799e-05 were on extended
We had 668886433 decisions of which only 7.0864e-05 were on extended
We had 668928137 decisions of which only 7.08596e-05 were on extended
We had 674603368 decisions of which only 7.02635e-05 were on extended
We had 674786777 decisions of which only 7.02444e-05 were on extended
We had 681101368 decisions of which only 6.95932e-05 were on extended
We had 681136411 decisions of which only 6.95896e-05 were on extended
We had 681205163 decisions of which only 6.95826e-05 were on extended
c Switched to LRB.
We had 688032216 decisions of which only 6.94735e-05 were on extended
We had 688056414 decisions of which only 6.9471e-05 were on extended
We had 692797748 decisions of which only 6.89956e-05 were on extended
We had 693144351 decisions of which only 6.89611e-05 were on extended
We had 694621868 decisions of which only 6.88144e-05 were on extended
We had 696563891 decisions of which only 6.86226e-05 were on extended
We had 696634211 decisions of which only 6.86156e-05 were on extended
We had 699040785 decisions of which only 6.83794e-05 were on extended
We had 699839989 decisions of which only 6.83013e-05 were on extended
We had 700421013 decisions of which only 6.82447e-05 were on extended
We had 704427818 decisions of which only 6.78565e-05 were on extended
We had 704939677 decisions of which only 6.78072e-05 were on extended
We had 706198865 decisions of which only 6.76863e-05 were on extended
We had 706299439 decisions of which only 6.76767e-05 were on extended
We had 706356637 decisions of which only 6.76712e-05 were on extended
We had 706417622 decisions of which only 6.76654e-05 were on extended
We had 706700914 decisions of which only 6.76382e-05 were on extended
We had 708563762 decisions of which only 6.74604e-05 were on extended
c Switched to VSIDS.
We had 713269028 decisions of which only 6.70154e-05 were on extended
We had 713389421 decisions of which only 6.70041e-05 were on extended
We had 713618279 decisions of which only 6.69826e-05 were on extended
We had 715555647 decisions of which only 6.68012e-05 were on extended
We had 720845798 decisions of which only 6.6311e-05 were on extended
c Switched to LRB.
We had 743756671 decisions of which only 7.23355e-05 were on extended
We had 746236897 decisions of which only 7.20951e-05 were on extended
We had 746344251 decisions of which only 7.20847e-05 were on extended
We had 748068308 decisions of which only 7.19186e-05 were on extended
We had 751427112 decisions of which only 7.15971e-05 were on extended
We had 752352442 decisions of which only 7.1509e-05 were on extended
We had 754236793 decisions of which only 7.13304e-05 were on extended
We had 755139286 decisions of which only 7.12451e-05 were on extended
We had 755275358 decisions of which only 7.12323e-05 were on extended
We had 755564499 decisions of which only 7.1205e-05 were on extended
We had 759462308 decisions of which only 7.08396e-05 were on extended
We had 759806833 decisions of which only 7.08075e-05 were on extended
We had 760092374 decisions of which only 7.07809e-05 were on extended
We had 760338062 decisions of which only 7.0758e-05 were on extended
We had 760544325 decisions of which only 7.07388e-05 were on extended
We had 760674255 decisions of which only 7.07267e-05 were on extended
We had 760829468 decisions of which only 7.07123e-05 were on extended
We had 760885852 decisions of which only 7.07071e-05 were on extended
We had 761086842 decisions of which only 7.06884e-05 were on extended
We had 761112761 decisions of which only 7.0686e-05 were on extended
We had 761259871 decisions of which only 7.06723e-05 were on extended
c Switched to VSIDS.
We had 761501472 decisions of which only 7.06499e-05 were on extended
We had 761878879 decisions of which only 7.06149e-05 were on extended
We had 762305035 decisions of which only 7.05754e-05 were on extended
We had 762455818 decisions of which only 7.05615e-05 were on extended
We had 763619474 decisions of which only 7.04539e-05 were on extended
We had 763674433 decisions of which only 7.04489e-05 were on extended
We had 763738183 decisions of which only 7.0443e-05 were on extended
We had 763789382 decisions of which only 7.04383e-05 were on extended
We had 764280779 decisions of which only 7.0393e-05 were on extended
We had 767209816 decisions of which only 7.01242e-05 were on extended
We had 772682102 decisions of which only 6.96276e-05 were on extended
We had 773154005 decisions of which only 6.95851e-05 were on extended
We had 773686141 decisions of which only 6.95372e-05 were on extended
c Switched to LRB.
We had 781865021 decisions of which only 6.93214e-05 were on extended
We had 782192317 decisions of which only 6.92924e-05 were on extended
We had 782276931 decisions of which only 6.92849e-05 were on extended
We had 782337928 decisions of which only 6.92795e-05 were on extended
We had 782390450 decisions of which only 6.92749e-05 were on extended
We had 786534138 decisions of which only 6.89099e-05 were on extended
We had 787139015 decisions of which only 6.8857e-05 were on extended
We had 788920758 decisions of which only 6.87014e-05 were on extended
We had 788979806 decisions of which only 6.86963e-05 were on extended
We had 789025390 decisions of which only 6.86923e-05 were on extended
We had 789473022 decisions of which only 6.86534e-05 were on extended
We had 789593250 decisions of which only 6.86429e-05 were on extended
We had 789868230 decisions of which only 6.8619e-05 were on extended
We had 789922472 decisions of which only 6.86143e-05 were on extended
We had 790287815 decisions of which only 6.85826e-05 were on extended
We had 792598604 decisions of which only 6.83827e-05 were on extended
We had 792805145 decisions of which only 6.83648e-05 were on extended
We had 792930353 decisions of which only 6.8354e-05 were on extended
We had 793727984 decisions of which only 6.82854e-05 were on extended
We had 795745500 decisions of which only 6.81122e-05 were on extended
We had 795827579 decisions of which only 6.81052e-05 were on extended
We had 795987316 decisions of which only 6.80915e-05 were on extended
We had 796124529 decisions of which only 6.80798e-05 were on extended
We had 796173251 decisions of which only 6.80756e-05 were on extended
We had 796185405 decisions of which only 6.80746e-05 were on extended
We had 796196969 decisions of which only 6.80736e-05 were on extended
We had 796328476 decisions of which only 6.80624e-05 were on extended
We had 796387791 decisions of which only 6.80573e-05 were on extended
We had 797216145 decisions of which only 6.79866e-05 were on extended
We had 797656205 decisions of which only 6.79491e-05 were on extended
We had 798872687 decisions of which only 6.78456e-05 were on extended
We had 798889197 decisions of which only 6.78442e-05 were on extended
We had 799476285 decisions of which only 6.96706e-05 were on extended
We had 799510343 decisions of which only 6.96676e-05 were on extended
We had 801435183 decisions of which only 7.17463e-05 were on extended
We had 801476797 decisions of which only 7.17426e-05 were on extended
We had 801568566 decisions of which only 7.17343e-05 were on extended
We had 802104159 decisions of which only 7.16865e-05 were on extended
c Switched to VSIDS.
We had 805297892 decisions of which only 7.14021e-05 were on extended
We had 805375983 decisions of which only 7.13952e-05 were on extended
We had 805684079 decisions of which only 7.13679e-05 were on extended
We had 806020926 decisions of which only 7.13381e-05 were on extended
We had 806182859 decisions of which only 7.13238e-05 were on extended
We had 814906983 decisions of which only 7.05602e-05 were on extended
We had 815224239 decisions of which only 7.05327e-05 were on extended
We had 818074298 decisions of which only 7.0287e-05 were on extended
We had 818583849 decisions of which only 7.02433e-05 were on extended
We had 821847050 decisions of which only 6.99644e-05 were on extended
We had 824058560 decisions of which only 6.97766e-05 were on extended
We had 827751046 decisions of which only 6.94653e-05 were on extended
We had 828340971 decisions of which only 6.94159e-05 were on extended
c Switched to LRB.
We had 832687284 decisions of which only 7.32568e-05 were on extended
We had 835198671 decisions of which only 7.39944e-05 were on extended
We had 835575172 decisions of which only 7.3961e-05 were on extended
We had 836001104 decisions of which only 7.39233e-05 were on extended
We had 836081955 decisions of which only 7.39162e-05 were on extended
We had 836747834 decisions of which only 7.38574e-05 were on extended
We had 836986950 decisions of which only 7.38363e-05 were on extended
We had 837188934 decisions of which only 7.42963e-05 were on extended
We had 837334674 decisions of which only 7.45222e-05 were on extended
We had 837448054 decisions of which only 7.45121e-05 were on extended
We had 837460507 decisions of which only 7.4511e-05 were on extended
We had 838281817 decisions of which only 7.83746e-05 were on extended
We had 838363222 decisions of which only 7.8367e-05 were on extended
We had 838459856 decisions of which only 7.8358e-05 were on extended
We had 838560977 decisions of which only 7.83485e-05 were on extended
We had 838676369 decisions of which only 7.83377e-05 were on extended
We had 840658859 decisions of which only 7.8153e-05 were on extended
We had 841057048 decisions of which only 7.8116e-05 were on extended
We had 841129582 decisions of which only 7.81092e-05 were on extended
We had 841161628 decisions of which only 7.81063e-05 were on extended
We had 841335094 decisions of which only 7.80902e-05 were on extended
We had 842145789 decisions of which only 7.87275e-05 were on extended
We had 842159222 decisions of which only 7.87262e-05 were on extended
We had 843235126 decisions of which only 7.86258e-05 were on extended
We had 844984868 decisions of which only 7.84629e-05 were on extended
We had 845114820 decisions of which only 7.84509e-05 were on extended
We had 845589668 decisions of which only 7.84068e-05 were on extended
We had 845907716 decisions of which only 7.83773e-05 were on extended
We had 845966321 decisions of which only 7.83719e-05 were on extended
We had 846215729 decisions of which only 7.83488e-05 were on extended
We had 846362267 decisions of which only 7.83353e-05 were on extended
We had 847175454 decisions of which only 7.82601e-05 were on extended
We had 847352770 decisions of which only 7.82437e-05 were on extended
We had 848345689 decisions of which only 7.81521e-05 were on extended
We had 848650002 decisions of which only 7.81241e-05 were on extended
We had 848710559 decisions of which only 7.81185e-05 were on extended
We had 848980814 decisions of which only 7.80936e-05 were on extended
We had 849221967 decisions of which only 7.80715e-05 were on extended
We had 849260212 decisions of which only 7.80679e-05 were on extended
We had 849344783 decisions of which only 7.80602e-05 were on extended
We had 851823824 decisions of which only 7.7833e-05 were on extended
c Switched to VSIDS.
We had 854834813 decisions of which only 8.44608e-05 were on extended
We had 855269483 decisions of which only 8.44178e-05 were on extended
We had 855548371 decisions of which only 8.43903e-05 were on extended
We had 858193548 decisions of which only 8.58781e-05 were on extended
We had 859263085 decisions of which only 8.57712e-05 were on extended
We had 859454175 decisions of which only 8.58685e-05 were on extended
We had 859517506 decisions of which only 8.58621e-05 were on extended
We had 859776057 decisions of which only 8.58363e-05 were on extended
We had 860008107 decisions of which only 8.58131e-05 were on extended
We had 861836095 decisions of which only 8.56311e-05 were on extended
We had 863360075 decisions of which only 8.548e-05 were on extended
We had 863651098 decisions of which only 8.54512e-05 were on extended
We had 863740442 decisions of which only 8.54423e-05 were on extended
We had 863881033 decisions of which only 8.54284e-05 were on extended
We had 864075088 decisions of which only 8.54092e-05 were on extended
We had 864511726 decisions of which only 8.53661e-05 were on extended
We had 868035713 decisions of which only 8.53652e-05 were on extended
c Switched to LRB.
We had 875203902 decisions of which only 8.74082e-05 were on extended
We had 882683378 decisions of which only 8.84802e-05 were on extended
We had 949967945 decisions of which only 8.22133e-05 were on extended
We had 955784217 decisions of which only 8.1713e-05 were on extended
We had 1054365111 decisions of which only 7.4073e-05 were on extended
c Switched to VSIDS.
c Switched to LRB.
We had 1167632844 decisions of which only 6.68875e-05 were on extended
We had 1167831073 decisions of which only 6.68761e-05 were on extended
We had 1168067354 decisions of which only 6.68626e-05 were on extended
We had 1168121673 decisions of which only 6.68595e-05 were on extended
We had 1168134621 decisions of which only 6.68587e-05 were on extended
We had 1168146994 decisions of which only 6.6858e-05 were on extended
We had 1168280948 decisions of which only 6.68504e-05 were on extended
We had 1168373124 decisions of which only 6.68451e-05 were on extended
We had 1170175828 decisions of which only 6.67421e-05 were on extended
We had 1170227589 decisions of which only 6.67392e-05 were on extended
We had 1173503038 decisions of which only 6.65529e-05 were on extended
We had 1179273262 decisions of which only 6.62272e-05 were on extended
We had 1181289385 decisions of which only 6.61142e-05 were on extended
We had 1181360008 decisions of which only 6.61102e-05 were on extended
We had 1181380116 decisions of which only 6.61091e-05 were on extended
We had 1208163943 decisions of which only 6.46435e-05 were on extended
We had 1209038924 decisions of which only 6.45968e-05 were on extended
We had 1209178130 decisions of which only 6.45893e-05 were on extended
We had 1209244242 decisions of which only 6.45858e-05 were on extended
We had 1209343110 decisions of which only 6.45805e-05 were on extended
We had 1209917218 decisions of which only 6.45499e-05 were on extended
We had 1210008058 decisions of which only 6.4545e-05 were on extended
We had 1210100247 decisions of which only 6.45401e-05 were on extended
We had 1210169792 decisions of which only 6.45364e-05 were on extended
We had 1210219379 decisions of which only 6.45338e-05 were on extended
We had 1213171085 decisions of which only 6.43767e-05 were on extended
We had 1213211700 decisions of which only 6.43746e-05 were on extended
We had 1213351812 decisions of which only 6.43672e-05 were on extended
We had 1213858017 decisions of which only 6.43403e-05 were on extended
c Switched to VSIDS.
We had 1216819500 decisions of which only 6.41837e-05 were on extended
We had 1217793336 decisions of which only 6.41324e-05 were on extended
We had 1219196777 decisions of which only 6.40586e-05 were on extended
We had 1220778961 decisions of which only 6.39755e-05 were on extended
We had 1234336580 decisions of which only 6.32729e-05 were on extended
c Switched to LRB.
We had 1236374460 decisions of which only 6.31686e-05 were on extended
We had 1236762626 decisions of which only 6.31487e-05 were on extended
We had 1237653487 decisions of which only 6.31033e-05 were on extended
We had 1237700313 decisions of which only 6.31009e-05 were on extended
We had 1238049506 decisions of which only 6.30831e-05 were on extended
We had 1238320977 decisions of which only 6.30693e-05 were on extended
We had 1240058373 decisions of which only 6.29809e-05 were on extended
We had 1240342969 decisions of which only 6.29665e-05 were on extended
We had 1240554115 decisions of which only 6.29557e-05 were on extended
We had 1240629823 decisions of which only 6.29519e-05 were on extended
We had 1240942111 decisions of which only 6.29361e-05 were on extended
We had 1241009902 decisions of which only 6.29326e-05 were on extended
We had 1241164681 decisions of which only 6.29248e-05 were on extended
We had 1241259850 decisions of which only 6.32422e-05 were on extended
We had 1241289318 decisions of which only 6.32407e-05 were on extended
We had 1241352953 decisions of which only 6.32375e-05 were on extended
We had 1241588378 decisions of which only 6.32255e-05 were on extended
We had 1241907488 decisions of which only 6.32092e-05 were on extended
We had 1242963341 decisions of which only 6.31555e-05 were on extended
We had 1243214516 decisions of which only 6.31428e-05 were on extended
We had 1243229883 decisions of which only 6.3142e-05 were on extended
We had 1243242126 decisions of which only 6.31414e-05 were on extended
We had 1243399861 decisions of which only 6.31334e-05 were on extended
We had 1243476705 decisions of which only 6.31294e-05 were on extended
We had 1243505953 decisions of which only 6.3128e-05 were on extended
We had 1243520017 decisions of which only 6.31273e-05 were on extended
We had 1243578774 decisions of which only 6.31243e-05 were on extended
We had 1247176778 decisions of which only 6.29422e-05 were on extended
We had 1247202386 decisions of which only 6.29409e-05 were on extended
We had 1247213752 decisions of which only 6.29403e-05 were on extended
We had 1247224786 decisions of which only 6.29397e-05 were on extended
We had 1247346599 decisions of which only 6.29336e-05 were on extended
We had 1247358376 decisions of which only 6.2933e-05 were on extended
We had 1247384590 decisions of which only 6.29317e-05 were on extended
We had 1247457849 decisions of which only 6.2928e-05 were on extended
We had 1247558357 decisions of which only 6.29229e-05 were on extended
We had 1247745073 decisions of which only 6.29135e-05 were on extended
We had 1247798851 decisions of which only 6.29108e-05 were on extended
We had 1247887255 decisions of which only 6.29063e-05 were on extended
We had 1247930568 decisions of which only 6.29041e-05 were on extended
We had 1248082107 decisions of which only 6.28965e-05 were on extended
We had 1248103547 decisions of which only 6.28954e-05 were on extended
We had 1248122244 decisions of which only 6.28945e-05 were on extended
We had 1248135242 decisions of which only 6.28938e-05 were on extended
We had 1248147734 decisions of which only 6.28932e-05 were on extended
We had 1248159555 decisions of which only 6.28926e-05 were on extended
We had 1248171582 decisions of which only 6.2892e-05 were on extended
We had 1248183034 decisions of which only 6.28914e-05 were on extended
We had 1248194825 decisions of which only 6.28908e-05 were on extended
We had 1248207090 decisions of which only 6.28902e-05 were on extended
We had 1248219772 decisions of which only 6.28896e-05 were on extended
We had 1248232340 decisions of which only 6.28889e-05 were on extended
We had 1248452628 decisions of which only 6.28778e-05 were on extended
We had 1250991268 decisions of which only 6.27502e-05 were on extended
We had 1251165282 decisions of which only 6.27415e-05 were on extended
We had 1252496149 decisions of which only 6.26748e-05 were on extended
We had 1252519604 decisions of which only 6.26737e-05 were on extended
We had 1252602370 decisions of which only 6.26695e-05 were on extended
We had 1252657124 decisions of which only 6.26668e-05 were on extended
We had 1255486666 decisions of which only 6.63488e-05 were on extended
We had 1255636516 decisions of which only 6.64205e-05 were on extended
We had 1256198985 decisions of which only 6.70276e-05 were on extended
We had 1256271447 decisions of which only 6.70237e-05 were on extended
We had 1257700047 decisions of which only 6.87763e-05 were on extended
c Switched to VSIDS.
We had 1277541433 decisions of which only 6.94302e-05 were on extended
We had 1277583393 decisions of which only 6.9428e-05 were on extended
We had 1278254198 decisions of which only 6.93915e-05 were on extended
We had 1278295377 decisions of which only 6.93893e-05 were on extended
We had 1279499032 decisions of which only 6.9324e-05 were on extended
We had 1279858798 decisions of which only 6.93045e-05 were on extended
We had 1284824255 decisions of which only 6.90367e-05 were on extended
We had 1285164631 decisions of which only 6.90184e-05 were on extended
We had 1293875456 decisions of which only 6.85537e-05 were on extended
We had 1295534535 decisions of which only 6.84659e-05 were on extended
We had 1295758061 decisions of which only 6.84541e-05 were on extended
We had 1295883387 decisions of which only 6.84475e-05 were on extended
We had 1296313147 decisions of which only 6.84248e-05 were on extended
We had 1298484321 decisions of which only 6.83104e-05 were on extended
